(declare-fun lit_b32 () (_ FloatingPoint 8 24))
(assert (fp.isNormal lit_b32))
(declare-fun lit_b35 () (_ FloatingPoint 8 24))
(assert (fp.isNormal lit_b35))
(declare-fun lit_b62 () (_ FloatingPoint 8 24))
(assert (fp.isNormal lit_b62))
(declare-fun lit_b20 () (_ FloatingPoint 8 24))
(assert (fp.isNormal lit_b20))
(declare-fun lit_b10 () (_ FloatingPoint 8 24))
(assert (fp.isNormal lit_b10))
(declare-fun lit_b14 () (_ FloatingPoint 8 24))
(assert (fp.isNormal lit_b14))
(declare-fun lit_b68 () (_ FloatingPoint 8 24))
(assert (fp.isNormal lit_b68))
(declare-fun lit_b71 () (_ FloatingPoint 8 24))
(assert (fp.isNormal lit_b71))
(declare-fun lit_b44 () (_ FloatingPoint 8 24))
(assert (fp.isNormal lit_b44))
(declare-fun lit_b29 () (_ FloatingPoint 8 24))
(assert (fp.isNormal lit_b29))
(declare-fun lit_b59 () (_ FloatingPoint 8 24))
(assert (fp.isNormal lit_b59))
(declare-fun lit_b23 () (_ FloatingPoint 8 24))
(assert (fp.isNormal lit_b23))
(declare-fun lit_b41 () (_ FloatingPoint 8 24))
(assert (fp.isNormal lit_b41))
(declare-fun lit_b65 () (_ FloatingPoint 8 24))
(assert (fp.isNormal lit_b65))
(declare-fun lit_b119 () (_ FloatingPoint 8 24))
(assert (fp.isNormal lit_b119))
(declare-fun lit_b17 () (_ FloatingPoint 8 24))
(assert (fp.isNormal lit_b17))
(declare-fun lit_b11 () (_ FloatingPoint 8 24))
(assert (fp.isNormal lit_b11))
(declare-fun lit_b26 () (_ FloatingPoint 8 24))
(assert (fp.isNormal lit_b26))
(declare-fun lit_b50 () (_ FloatingPoint 8 24))
(assert (fp.isNormal lit_b50))
(declare-fun lit_b122 () (_ FloatingPoint 8 24))
(assert (fp.isNormal lit_b122))
(declare-fun lit_b56 () (_ FloatingPoint 8 24))
(assert (fp.isNormal lit_b56))
(declare-fun lit_b53 () (_ FloatingPoint 8 24))
(assert (fp.isNormal lit_b53))
(declare-fun lit_b47 () (_ FloatingPoint 8 24))
(assert (fp.isNormal lit_b47))
(declare-fun lit_b38 () (_ FloatingPoint 8 24))
(assert (fp.isNormal lit_b38))
(define-fun const_0 () (_ FloatingPoint 8 24) ((_ to_fp 8 24) RTN 0.000000000000000000000000000000000000000000000000000000000000000000000000000000000000000000000000000000000000000000000000000000000000000000000000000000000000000000000))
(define-fun lit_9 () (_ FloatingPoint 8 24) (fp.add RNE lit_b119 const_0))
(assert (fp.isNormal lit_9))
(define-fun lit_10 () (_ FloatingPoint 8 24) (fp.add RNE lit_b11 const_0))
(assert (fp.isNormal lit_10))
(define-fun lit_11 () Bool (fp.lt lit_9 lit_10))
(define-fun lit_12 () (_ FloatingPoint 8 24) (fp.add RNE lit_b10 const_0))
(assert (fp.isNormal lit_12))
(define-fun lit_13 () (_ FloatingPoint 8 24) (fp.mul RNE lit_10 lit_12))
(assert (fp.isNormal lit_13))
(define-fun lit_14 () (_ FloatingPoint 8 24) (fp.add RNE lit_b14 const_0))
(assert (fp.isNormal lit_14))
(define-fun lit_15 () (_ FloatingPoint 8 24) (fp.mul RNE lit_13 lit_14))
(assert (fp.isNormal lit_15))
(define-fun lit_16 () (_ FloatingPoint 8 24) (fp.add RNE lit_b17 const_0))
(assert (fp.isNormal lit_16))
(define-fun lit_17 () (_ FloatingPoint 8 24) (fp.mul RNE lit_15 lit_16))
(assert (fp.isNormal lit_17))
(define-fun lit_18 () (_ FloatingPoint 8 24) (fp.add RNE lit_b20 const_0))
(assert (fp.isNormal lit_18))
(define-fun lit_19 () (_ FloatingPoint 8 24) (fp.mul RNE lit_17 lit_18))
(assert (fp.isNormal lit_19))
(define-fun lit_20 () (_ FloatingPoint 8 24) (fp.add RNE lit_b23 const_0))
(assert (fp.isNormal lit_20))
(define-fun lit_21 () (_ FloatingPoint 8 24) (fp.mul RNE lit_19 lit_20))
(assert (fp.isNormal lit_21))
(define-fun lit_22 () (_ FloatingPoint 8 24) (fp.add RNE lit_b26 const_0))
(assert (fp.isNormal lit_22))
(define-fun lit_23 () (_ FloatingPoint 8 24) (fp.mul RNE lit_21 lit_22))
(assert (fp.isNormal lit_23))
(define-fun lit_24 () (_ FloatingPoint 8 24) (fp.add RNE lit_b29 const_0))
(assert (fp.isNormal lit_24))
(define-fun lit_25 () (_ FloatingPoint 8 24) (fp.mul RNE lit_23 lit_24))
(assert (fp.isNormal lit_25))
(define-fun lit_26 () (_ FloatingPoint 8 24) (fp.add RNE lit_b32 const_0))
(assert (fp.isNormal lit_26))
(define-fun lit_27 () (_ FloatingPoint 8 24) (fp.mul RNE lit_25 lit_26))
(assert (fp.isNormal lit_27))
(define-fun lit_28 () (_ FloatingPoint 8 24) (fp.add RNE lit_b35 const_0))
(assert (fp.isNormal lit_28))
(define-fun lit_29 () (_ FloatingPoint 8 24) (fp.mul RNE lit_27 lit_28))
(assert (fp.isNormal lit_29))
(define-fun lit_30 () (_ FloatingPoint 8 24) (fp.add RNE lit_b38 const_0))
(assert (fp.isNormal lit_30))
(define-fun lit_31 () (_ FloatingPoint 8 24) (fp.mul RNE lit_29 lit_30))
(assert (fp.isNormal lit_31))
(define-fun lit_32 () (_ FloatingPoint 8 24) (fp.add RNE lit_b41 const_0))
(assert (fp.isNormal lit_32))
(define-fun lit_33 () (_ FloatingPoint 8 24) (fp.mul RNE lit_31 lit_32))
(assert (fp.isNormal lit_33))
(define-fun lit_34 () (_ FloatingPoint 8 24) (fp.add RNE lit_b44 const_0))
(assert (fp.isNormal lit_34))
(define-fun lit_35 () (_ FloatingPoint 8 24) (fp.mul RNE lit_33 lit_34))
(assert (fp.isNormal lit_35))
(define-fun lit_36 () (_ FloatingPoint 8 24) (fp.add RNE lit_b47 const_0))
(assert (fp.isNormal lit_36))
(define-fun lit_37 () (_ FloatingPoint 8 24) (fp.mul RNE lit_35 lit_36))
(assert (fp.isNormal lit_37))
(define-fun lit_38 () (_ FloatingPoint 8 24) (fp.add RNE lit_b50 const_0))
(assert (fp.isNormal lit_38))
(define-fun lit_39 () (_ FloatingPoint 8 24) (fp.mul RNE lit_37 lit_38))
(assert (fp.isNormal lit_39))
(define-fun lit_40 () (_ FloatingPoint 8 24) (fp.add RNE lit_b53 const_0))
(assert (fp.isNormal lit_40))
(define-fun lit_41 () (_ FloatingPoint 8 24) (fp.mul RNE lit_39 lit_40))
(assert (fp.isNormal lit_41))
(define-fun lit_42 () (_ FloatingPoint 8 24) (fp.add RNE lit_b56 const_0))
(assert (fp.isNormal lit_42))
(define-fun lit_43 () (_ FloatingPoint 8 24) (fp.mul RNE lit_41 lit_42))
(assert (fp.isNormal lit_43))
(define-fun lit_44 () (_ FloatingPoint 8 24) (fp.add RNE lit_b59 const_0))
(assert (fp.isNormal lit_44))
(define-fun lit_45 () (_ FloatingPoint 8 24) (fp.mul RNE lit_43 lit_44))
(assert (fp.isNormal lit_45))
(define-fun lit_46 () (_ FloatingPoint 8 24) (fp.add RNE lit_b62 const_0))
(assert (fp.isNormal lit_46))
(define-fun lit_47 () (_ FloatingPoint 8 24) (fp.mul RNE lit_45 lit_46))
(assert (fp.isNormal lit_47))
(define-fun lit_48 () (_ FloatingPoint 8 24) (fp.add RNE lit_b65 const_0))
(assert (fp.isNormal lit_48))
(define-fun lit_49 () (_ FloatingPoint 8 24) (fp.mul RNE lit_47 lit_48))
(assert (fp.isNormal lit_49))
(define-fun lit_50 () (_ FloatingPoint 8 24) (fp.add RNE lit_b68 const_0))
(assert (fp.isNormal lit_50))
(define-fun lit_51 () (_ FloatingPoint 8 24) (fp.mul RNE lit_49 lit_50))
(assert (fp.isNormal lit_51))
(define-fun lit_52 () (_ FloatingPoint 8 24) (fp.add RNE lit_b71 const_0))
(assert (fp.isNormal lit_52))
(define-fun lit_53 () Bool (fp.lt lit_51 lit_52))
(define-fun lit_54 () Bool (and lit_11 lit_53))
(define-fun lit_55 () (_ FloatingPoint 8 24) (fp.add RNE lit_b122 const_0))
(assert (fp.isNormal lit_55))
(define-fun lit_56 () Bool (fp.lt lit_10 lit_55))
(define-fun lit_57 () Bool (and lit_54 lit_56))
(define-fun lit_58 () Bool (fp.lt lit_9 lit_14))
(define-fun lit_59 () Bool (and lit_57 lit_58))
(define-fun lit_60 () Bool (fp.lt lit_14 lit_55))
(define-fun lit_61 () Bool (and lit_59 lit_60))
(define-fun lit_62 () Bool (fp.lt lit_9 lit_16))
(define-fun lit_63 () Bool (and lit_61 lit_62))
(define-fun lit_64 () Bool (fp.lt lit_16 lit_55))
(define-fun lit_65 () Bool (and lit_63 lit_64))
(define-fun lit_66 () Bool (fp.lt lit_9 lit_18))
(define-fun lit_67 () Bool (and lit_65 lit_66))
(define-fun lit_68 () Bool (fp.lt lit_18 lit_55))
(define-fun lit_69 () Bool (and lit_67 lit_68))
(define-fun lit_70 () Bool (fp.lt lit_9 lit_20))
(define-fun lit_71 () Bool (and lit_69 lit_70))
(define-fun lit_72 () Bool (fp.lt lit_20 lit_55))
(define-fun lit_73 () Bool (and lit_71 lit_72))
(define-fun lit_74 () Bool (fp.lt lit_9 lit_22))
(define-fun lit_75 () Bool (and lit_73 lit_74))
(define-fun lit_76 () Bool (fp.lt lit_22 lit_55))
(define-fun lit_77 () Bool (and lit_75 lit_76))
(define-fun lit_78 () Bool (fp.lt lit_9 lit_24))
(define-fun lit_79 () Bool (and lit_77 lit_78))
(define-fun lit_80 () Bool (fp.lt lit_24 lit_55))
(define-fun lit_81 () Bool (and lit_79 lit_80))
(define-fun lit_82 () Bool (fp.lt lit_9 lit_26))
(define-fun lit_83 () Bool (and lit_81 lit_82))
(define-fun lit_84 () Bool (fp.lt lit_26 lit_55))
(define-fun lit_85 () Bool (and lit_83 lit_84))
(define-fun lit_86 () Bool (fp.lt lit_9 lit_28))
(define-fun lit_87 () Bool (and lit_85 lit_86))
(define-fun lit_88 () Bool (fp.lt lit_28 lit_55))
(define-fun lit_89 () Bool (and lit_87 lit_88))
(define-fun lit_90 () Bool (fp.lt lit_9 lit_30))
(define-fun lit_91 () Bool (and lit_89 lit_90))
(define-fun lit_92 () Bool (fp.lt lit_30 lit_55))
(define-fun lit_93 () Bool (and lit_91 lit_92))
(define-fun lit_94 () Bool (fp.lt lit_9 lit_32))
(define-fun lit_95 () Bool (and lit_93 lit_94))
(define-fun lit_96 () Bool (fp.lt lit_32 lit_55))
(define-fun lit_97 () Bool (and lit_95 lit_96))
(define-fun lit_98 () Bool (fp.lt lit_9 lit_34))
(define-fun lit_99 () Bool (and lit_97 lit_98))
(define-fun lit_100 () Bool (fp.lt lit_34 lit_55))
(define-fun lit_101 () Bool (and lit_99 lit_100))
(define-fun lit_102 () Bool (fp.lt lit_9 lit_36))
(define-fun lit_103 () Bool (and lit_101 lit_102))
(define-fun lit_104 () Bool (fp.lt lit_36 lit_55))
(define-fun lit_105 () Bool (and lit_103 lit_104))
(define-fun lit_106 () Bool (fp.lt lit_9 lit_38))
(define-fun lit_107 () Bool (and lit_105 lit_106))
(define-fun lit_108 () Bool (fp.lt lit_38 lit_55))
(define-fun lit_109 () Bool (and lit_107 lit_108))
(define-fun lit_110 () Bool (fp.lt lit_9 lit_40))
(define-fun lit_111 () Bool (and lit_109 lit_110))
(define-fun lit_112 () Bool (fp.lt lit_40 lit_55))
(define-fun lit_113 () Bool (and lit_111 lit_112))
(define-fun lit_114 () Bool (fp.lt lit_9 lit_42))
(define-fun lit_115 () Bool (and lit_113 lit_114))
(define-fun lit_116 () Bool (fp.lt lit_42 lit_55))
(define-fun lit_117 () Bool (and lit_115 lit_116))
(define-fun lit_118 () Bool (fp.lt lit_9 lit_44))
(define-fun lit_119 () Bool (and lit_117 lit_118))
(define-fun lit_120 () Bool (fp.lt lit_44 lit_55))
(define-fun lit_121 () Bool (and lit_119 lit_120))
(define-fun lit_122 () Bool (fp.lt lit_9 lit_46))
(define-fun lit_123 () Bool (and lit_121 lit_122))
(define-fun lit_124 () Bool (fp.lt lit_46 lit_55))
(define-fun lit_125 () Bool (and lit_123 lit_124))
(define-fun lit_126 () Bool (fp.lt lit_9 lit_48))
(define-fun lit_127 () Bool (and lit_125 lit_126))
(define-fun lit_128 () Bool (fp.lt lit_48 lit_55))
(define-fun lit_129 () Bool (and lit_127 lit_128))
(define-fun lit_130 () Bool (fp.lt lit_9 lit_50))
(define-fun lit_131 () Bool (and lit_129 lit_130))
(define-fun lit_132 () Bool (fp.lt lit_50 lit_55))
(define-fun lit_133 () Bool (and lit_131 lit_132))
(define-fun const_1 () (_ FloatingPoint 8 24) ((_ to_fp 8 24) RTN 1.000000000000000000000000000000000000000000000000000000000000000000000000000000000000000000000000000000000000000000000000000000000000000000000000000000000000000000000))
(define-fun const_2 () (_ FloatingPoint 8 24) ((_ to_fp 8 24) RTN 2.000000000000000000000000000000000000000000000000000000000000000000000000000000000000000000000000000000000000000000000000000000000000000000000000000000000000000000000))
(define-fun prop_1 () Bool (fp.lt const_1 const_2))
(define-fun propexp () Bool (and lit_133 prop_1))
(assert propexp)
(check-sat)
;(get-model)
(exit)